<number of tasks>
50

<cycle time>
1000

<order strength>
0.196


<task times>
1 142
2 28
3 173
4 20
5 131
6 145
7 62
8 129
9 487
10 491
11 35
12 525
13 465
14 143
15 159
16 242
17 551
18 77
19 146
20 312
21 96
22 266
23 270
24 151
25 410
26 38
27 216
28 73
29 367
30 124
31 71
32 137
33 151
34 56
35 336
36 209
37 167
38 182
39 72
40 503
41 279
42 447
43 21
44 189
45 569
46 74
47 79
48 198
49 221
50 289

<precedence relations>
1,25
2,25
3,10
3,40
4,9
5,7
5,8
5,11
5,24
6,25
6,40
7,12
7,23
8,13
8,48
9,14
9,15
11,22
12,18
13,19
14,16
14,17
14,20
14,22
14,23
14,24
15,21
15,24
15,40
16,25
17,25
18,28
19,29
20,26
21,27
22,30
23,31
23,32
25,33
25,34
25,35
25,36
25,41
26,37
27,38
28,39
29,47
30,40
33,45
33,46
35,45
37,42
38,44
39,43
40,47
42,48
43,49
45,50

<end>
